34 500
8 146
6 142
5 144
3 177
5 121
3 137
5 171
8 144
9 200
2 200
4 154
5 142
4 197
6 175
10 171
4 177
8 183
7 175
9 200
2 137
5 146
4 166
3 170
6 200
7 154
2 183
8 166
5 181
4 121
9 194
9 181
4 194
3 197
10 170
